55013
22, 10, 16, 52, 25, 31, 27, 1, 33, 42, 11, 45, 2, 15, 36, 46, 39, 29, 17, 48, 49, 19, 44, 38, 8, 32, 41, 13, 5, 35, 24, 50, 20, 7, 37, 51, 40, 43, 3, 6, 28, 55, 26, 54, 47, 30, 4, 18, 12, 14, 9, 34, 53, 23, 21
